NAME          ClpDefau
ROWS
 N  OBJROW
 L  R_252_0
 L  R_252_1
 L  R_252_2
 L  R_252_3
 L  R_252_4
 L  R_252_5
 L  R_252_6
 L  R_252_7
 L  R_252_8
 L  R_252_9
 L  R_252_10
 L  R_252_11
 L  R_252_12
 L  R_252_13
 L  R_252_14
 L  R_252_15
 L  R_252_16
 L  R_252_17
 L  R_252_18
 L  R_252_19
 L  R_252_20
 L  R_252_21
 L  R_252_22
 L  R_252_23
 L  R_252_24
 L  R_252_25
 L  R_252_26
 L  R_252_27
 L  R_252_28
 L  R_252_29
 L  R_252_30
 L  R_252_31
COLUMNS
    x_0       OBJROW     -1.           R_252_1   6.          
    x_0       R_252_2   9.             R_252_6   8.          
    x_0       R_252_15  7.          
    x_1       OBJROW     -2.           R_252_2   10.         
    x_1       R_252_17  6.             R_252_20  2.          
    x_1       R_252_21  1.             R_252_25  9.          
    x_1       R_252_26  5.          
    x_2       OBJROW     -2.           R_252_0   6.          
    x_2       R_252_3   2.             R_252_5   1.          
    x_2       R_252_7   3.             R_252_10  10.         
    x_2       R_252_11  4.             R_252_12  1.          
    x_2       R_252_13  10.            R_252_21  5.          
    x_2       R_252_29  8.          
    x_3       OBJROW     -6.           R_252_13  3.          
    x_3       R_252_14  4.             R_252_29  1.          
    x_3       R_252_31  9.          
    x_4       OBJROW     -3.           R_252_2   3.          
    x_4       R_252_4   1.             R_252_16  7.          
    x_4       R_252_22  2.             R_252_27  7.          
    x_4       R_252_28  5.             R_252_29  1.          
    x_4       R_252_31  8.          
    x_5       OBJROW     -5.           R_252_3   1.          
    x_5       R_252_6   8.             R_252_7   10.         
    x_5       R_252_10  6.             R_252_12  2.          
    x_5       R_252_13  10.            R_252_18  8.          
    x_6       OBJROW     -5.           R_252_9   6.          
    x_6       R_252_10  9.             R_252_11  7.          
    x_6       R_252_17  5.             R_252_22  5.          
    x_6       R_252_23  9.             R_252_30  3.          
    x_7       OBJROW     -10.          R_252_5   8.          
    x_7       R_252_11  5.             R_252_29  8.          
    x_8       OBJROW     -4.           R_252_1   2.          
    x_8       R_252_2   4.             R_252_7   9.          
    x_8       R_252_9   10.            R_252_13  7.          
    x_8       R_252_16  4.             R_252_23  10.         
    x_8       R_252_29  2.          
    x_9       OBJROW     -10.          R_252_7   8.          
    x_9       R_252_11  9.             R_252_13  1.          
    x_9       R_252_23  6.             R_252_30  4.          
    x_10      OBJROW     -1.           R_252_10  7.          
    x_10      R_252_19  8.             R_252_23  4.          
    x_10      R_252_27  3.          
    x_11      OBJROW     -10.          R_252_19  6.          
    x_11      R_252_21  3.             R_252_25  3.          
    x_12      OBJROW     -3.           R_252_5   6.          
    x_12      R_252_11  6.             R_252_20  3.          
    x_12      R_252_21  2.             R_252_24  9.          
    x_12      R_252_26  10.            R_252_29  8.          
    x_13      OBJROW     -7.           R_252_2   9.          
    x_13      R_252_10  2.             R_252_13  9.          
    x_13      R_252_15  5.             R_252_21  7.          
    x_13      R_252_23  8.             R_252_24  8.          
    x_13      R_252_28  9.             R_252_30  9.          
    x_14      OBJROW     -7.           R_252_4   8.          
    x_14      R_252_5   9.             R_252_6   2.          
    x_14      R_252_20  4.             R_252_21  4.          
    x_15      OBJROW     -9.           R_252_5   9.          
    x_15      R_252_9   3.             R_252_14  4.          
    x_15      R_252_17  4.             R_252_19  9.          
    x_15      R_252_22  8.             R_252_25  6.          
    x_16      OBJROW     -6.           R_252_3   5.          
    x_16      R_252_5   7.             R_252_20  8.          
    x_16      R_252_25  6.          
    x_17      OBJROW     -9.           R_252_5   1.          
    x_17      R_252_6   6.             R_252_7   9.          
    x_17      R_252_14  10.            R_252_17  7.          
    x_17      R_252_22  8.             R_252_25  5.          
    x_18      OBJROW     -8.           R_252_10  8.          
    x_18      R_252_18  9.             R_252_20  7.          
    x_18      R_252_23  9.             R_252_27  8.          
    x_18      R_252_30  8.             R_252_31  3.          
    x_19      OBJROW     -9.           R_252_2   3.          
    x_19      R_252_5   9.             R_252_8   3.          
    x_19      R_252_9   9.             R_252_17  6.          
    x_19      R_252_25  6.             R_252_31  2.          
    x_20      OBJROW     -5.           R_252_5   10.         
    x_20      R_252_6   10.            R_252_10  1.          
    x_20      R_252_12  4.             R_252_16  6.          
    x_20      R_252_17  10.            R_252_21  7.          
    x_20      R_252_22  5.             R_252_30  3.          
    x_21      OBJROW     -1.           R_252_9   10.         
    x_21      R_252_12  5.             R_252_27  5.          
    x_21      R_252_29  9.          
    x_22      OBJROW     -1.           R_252_8   5.          
    x_22      R_252_17  10.            R_252_20  7.          
    x_22      R_252_27  4.          
    x_23      OBJROW     -6.           R_252_12  8.          
    x_23      R_252_13  1.             R_252_18  6.          
    x_23      R_252_28  1.             R_252_29  7.          
    x_24      OBJROW     -8.           R_252_6   5.          
    x_24      R_252_12  4.             R_252_17  4.          
    x_24      R_252_27  8.          
    x_25      OBJROW     -6.           R_252_1   8.          
    x_25      R_252_4   4.             R_252_13  6.          
    x_25      R_252_18  8.             R_252_19  8.          
    x_26      OBJROW     -7.           R_252_0   3.          
    x_26      R_252_1   5.             R_252_3   1.          
    x_26      R_252_6   4.             R_252_11  4.          
    x_26      R_252_12  4.             R_252_13  2.          
    x_26      R_252_16  10.            R_252_17  3.          
    x_26      R_252_20  9.             R_252_24  2.          
    x_26      R_252_27  8.          
    x_27      OBJROW     -7.           R_252_0   3.          
    x_27      R_252_2   2.             R_252_6   5.          
    x_27      R_252_10  4.             R_252_15  3.          
    x_27      R_252_19  6.             R_252_25  1.          
    x_27      R_252_26  7.             R_252_27  4.          
    x_27      R_252_31  9.          
    x_28      OBJROW     -9.           R_252_2   10.         
    x_28      R_252_4   6.             R_252_5   4.          
    x_28      R_252_9   4.             R_252_10  2.          
    x_28      R_252_18  3.             R_252_21  3.          
    x_28      R_252_26  1.             R_252_29  1.          
    x_28      R_252_30  7.          
    x_29      OBJROW     -3.           R_252_1   5.          
    x_30      OBJROW     -9.           R_252_0   4.          
    x_30      R_252_7   2.             R_252_11  6.          
    x_30      R_252_15  9.             R_252_16  7.          
    x_30      R_252_30  10.         
    x_31      OBJROW     -3.           R_252_2   8.          
    x_31      R_252_3   6.             R_252_7   6.          
    x_31      R_252_8   1.             R_252_16  4.          
    x_31      R_252_17  8.             R_252_18  5.          
    x_31      R_252_19  3.             R_252_21  2.          
    x_31      R_252_24  6.          
RHS
    RHS       R_252_0   41.            R_252_1   37.         
    RHS       R_252_2   33.            R_252_3   32.         
    RHS       R_252_4   33.            R_252_5   35.         
    RHS       R_252_6   32.            R_252_7   40.         
    RHS       R_252_8   40.            R_252_9   32.         
    RHS       R_252_10  34.            R_252_11  32.         
    RHS       R_252_12  36.            R_252_13  36.         
    RHS       R_252_14  33.            R_252_15  32.         
    RHS       R_252_16  42.            R_252_17  41.         
    RHS       R_252_18  32.            R_252_19  37.         
    RHS       R_252_20  36.            R_252_21  33.         
    RHS       R_252_22  38.            R_252_23  42.         
    RHS       R_252_24  42.            R_252_25  42.         
    RHS       R_252_26  42.            R_252_27  34.         
    RHS       R_252_28  38.            R_252_29  32.         
    RHS       R_252_30  35.            R_252_31  35.         
BOUNDS
 UI BOUND     x_0       10.         
 UI BOUND     x_1       10.         
 UI BOUND     x_2       10.         
 UI BOUND     x_3       10.         
 UI BOUND     x_4       10.         
 UI BOUND     x_5       10.         
 UI BOUND     x_6       10.         
 UI BOUND     x_7       10.         
 UI BOUND     x_8       10.         
 UI BOUND     x_9       10.         
 UI BOUND     x_10      10.         
 UI BOUND     x_11      10.         
 UI BOUND     x_12      10.         
 UI BOUND     x_13      10.         
 UI BOUND     x_14      10.         
 UI BOUND     x_15      10.         
 UI BOUND     x_16      10.         
 UI BOUND     x_17      10.         
 UI BOUND     x_18      10.         
 UI BOUND     x_19      10.         
 UI BOUND     x_20      10.         
 UI BOUND     x_21      10.         
 UI BOUND     x_22      10.         
 UI BOUND     x_23      10.         
 UI BOUND     x_24      10.         
 UI BOUND     x_25      10.         
 UI BOUND     x_26      10.         
 UI BOUND     x_27      10.         
 UI BOUND     x_28      10.         
 UI BOUND     x_29      10.         
 UI BOUND     x_30      10.         
 UI BOUND     x_31      10.         
ENDATA
